c ---- [ banner ] ------------------------------------------------------------
c
c Kissat SAT Solver
c 
c Copyright (c) 2021-2024 Armin Biere University of Freiburg
c Copyright (c) 2019-2021 Armin Biere Johannes Kepler University Linz
c 
c Version 4.0.1 43f02cf3e992cb44653b35e5cb26f93281552ae0
c gcc (Ubuntu 13.2.0-23ubuntu4) 13.2.0 -W -Wall -O3 -DNDEBUG
c Thu Sep 12 12:27:46 CEST 2024 Linux abryzen9 6.8.0-41-generic x86_64
c
c ---- [ parsing ] -----------------------------------------------------------
c
c opened and reading DIMACS file:
c
c   /data/artifact/AMulet2.0_artifact/exp4/cnf_dc2_64/64_64_U_SP_AR_CL_GenMul_dc2.cnf
c
c parsed 'p cnf 28363 124582' header
c closing input after reading 2478690 bytes (2 MB)
c finished parsing after 0.03 seconds
c
c ---- [ options ] -----------------------------------------------------------
c
c --stable=0                       (different from default '1')
c
c ---- [ solving ] -----------------------------------------------------------
c
c  seconds switched rate     size/glue tier1  binary          remaining
c         MB reductions conflicts size  tier2    irredundant
c          level restarts redundant glue  trail          variables
c
c *  0.03 10 0 0 0  0 0   0   0 0.0 0 0 0 0 0% 8882 115698 28360 100%
c (  0.07 13 0 0 0  0 0   0   0 0.0 0 0 0 0 0% 8882 115698 28360 100%
c .  0.08 13 0 0 0  0 0   0   0 0.0 0 0 0 0 0% 8878 115698 28360 100%
c f  0.33 16 0 0 0  0 0   0   0 0.0 0 0 0 0 0% 8879 115696 28361 100%
c e  0.53 26 0 0 0  0 0   0   0 0.0 0 0 0 0 0% 8476 115892 20283 72%
c )  0.53 26 0 0 0  0 0   0   0 0.0 0 0 0 0 0% 8476 115892 20283 72%
c {  0.57 26 0 0 0  0 0   0   0 0.0 0 0 2 6 0% 8476 115892 20283 72%
c -  0.86 26 129 0 1 290 30 1000 808 2.2 13 6 3 10 22% 8491 115892 20283 72%
c -  0.99 26 121 0 2 350 21 2001 1592 2.1 12 5 3 9 23% 8496 115892 20283 72%
c u  1.15 26 115 0 2 448 21 2505 1873 2.1 12 6 3 9 23% 8503 115892 20283 72%
c v  1.17 26 115 0 2 448 21 2505 1812 2.1 12 6 3 9 23% 8503 115892 20283 72%
c w  1.18 26 115 0 2 448 21 2505 1812 2.1 12 6 3 9 23% 8503 115892 20283 72%
c f  1.26 26 115 0 2 448 21 2505 1812 2.1 12 6 3 9 23% 8504 115890 20284 72%
c u  1.38 26 115 0 2 448 21 2505 1633 2.1 12 6 3 9 23% 8505 115890 20284 72%
c v  1.41 26 115 0 2 448 21 2505 1557 2.1 12 6 3 9 23% 8505 115890 20284 72%
c w  1.43 26 115 0 2 448 21 2505 1556 2.1 12 6 3 9 23% 8505 115890 20284 72%
c =  1.50 26 115 0 2 448 21 2505 1556 2.1 12 6 3 9 23% 8747 115888 20163 71%
c d  1.51 26 115 0 2 448 21 2505 1555 2.1 12 6 3 9 23% 8505 115888 20163 71%
c f  1.55 26 115 0 2 448 21 2505 1555 2.1 12 6 3 9 23% 8505 115886 20165 71%
c -  1.76 26 111 0 3 581 22 3415 2092 2.1 14 7 3 10 22% 8511 115886 20165 71%
c
c  seconds   switched   rate       size/glue tier1     binary          remaining
c         MB  reductions conflicts       size  tier2      irredundant
c           level restarts    redundant    glue    trail          variables
c
c -  2.00 26 112 0 4 720 19 5147 3228 2.1 14 7 3 10 24% 8518 115886 20165 71%
c -  2.25 26 111 0 5 959 18 7147 4402 2.1 14 7 3 10 23% 8531 115886 20165 71%
c u  2.42 26 110 0 5 1084 18 7714 4781 2.1 14 7 3 10 23% 8552 115886 20165 71%
c v  2.45 26 110 0 5 1084 18 7714 4701 2.1 14 7 3 10 23% 8552 115886 20165 71%
c w  2.46 26 110 0 5 1084 18 7714 4701 2.1 14 7 3 10 23% 8552 115886 20165 71%
c =  2.58 26 110 0 5 1084 18 7714 4701 2.1 14 7 3 10 23% 10008 115840 19437 69%
c d  2.59 26 110 0 5 1084 18 7714 4676 2.1 14 7 3 10 23% 8550 115840 19437 69%
c t  2.61 26 110 0 5 1084 18 7714 4676 2.1 14 7 3 10 23% 8540 115840 19437 69%
c f  2.64 26 110 0 5 1084 18 7714 4676 2.1 14 7 3 10 23% 8555 115764 19475 69%
c u  2.71 26 110 0 5 1084 18 7714 4043 2.1 14 7 3 10 23% 8578 115764 19475 69%
c v  2.75 26 110 0 5 1084 18 7714 3899 2.1 14 7 3 10 23% 8578 115764 19475 69%
c w  2.76 26 110 0 5 1084 18 7714 3899 2.1 14 7 3 10 23% 8578 115764 19475 69%
c =  2.85 26 110 0 5 1084 18 7714 3899 2.1 14 7 3 10 23% 10104 115718 18708 66%
c d  2.86 26 110 0 5 1084 18 7714 3896 2.1 14 7 3 10 23% 8578 115718 18708 66%
c t  2.88 26 110 0 5 1084 18 7714 3896 2.1 14 7 3 10 23% 8559 115718 18708 66%
c f  2.91 26 110 0 5 1084 18 7714 3896 2.1 14 7 3 10 23% 8588 115650 18742 66%
c -  3.14 26 111 0 6 1265 18 9384 4568 2.1 14 7 3 11 22% 8606 115650 18742 66%
c o  3.24 26 111 0 6 1365 18 10002 5164 2.1 14 7 3 11 22% 8613 115650 18742 66%
c -  3.37 26 107 0 7 1416 16 11833 5711 2.1 14 7 3 9 21% 8633 115650 18742 66%
c s  3.48 26 107 0 7 1473 16 12521 6382 2.1 14 7 3 9 21% 8637 104571 18742 66%
c
c  seconds   switched    rate        size/glue tier1    binary          remaining
c         MB  reductions   conflicts       size  tier2     irredundant
c           level  restarts     redundant    glue   trail          variables
c
c e  3.60 26 107 0 7 1473 16 12521 6382 2.1 14 7 3 9 21% 8533 104645 18652 66%
c s  3.60 26 107 0 7 1473 16 12521 6382 2.1 14 7 3 9 21% 8534 104592 18652 66%
c e  3.61 26 107 0 7 1473 16 12521 6382 2.1 14 7 3 9 21% 8522 104581 18633 66%
c ^  3.61 26 107 0 7 1473 16 12521 6382 2.1 14 7 3 9 21% 8522 104581 18633 66%
c -  3.79 26 109 0 8 1590 15 14479 6798 2.0 14 7 3 9 22% 8538 104581 18633 66%
c c  4.00 26 109 0 8 1731 15 15802 8078 2.0 14 7 3 9 22% 8574 104472 18619 66%
c d  4.01 26 109 0 8 1731 15 15802 8076 2.0 14 7 3 9 22% 8546 104472 18619 66%
c u  4.07 26 109 0 8 1731 15 15802 7643 2.0 14 7 3 9 22% 8584 104472 18619 66%
c v  4.11 26 109 0 8 1731 15 15802 7420 2.0 14 7 3 9 22% 8586 104472 18619 66%
c w  4.13 26 109 0 8 1731 15 15802 7419 2.0 14 7 3 9 22% 8586 104472 18619 66%
c =  4.23 26 109 0 8 1731 15 15802 7419 2.0 14 7 3 9 22% 9960 104472 17932 63%
c d  4.24 26 109 0 8 1731 15 15802 7296 2.0 14 7 3 9 22% 8580 104472 17932 63%
c f  4.29 26 109 0 8 1731 15 15802 7296 2.0 14 7 3 9 22% 8582 104468 17933 63%
c u  4.35 26 109 0 8 1731 15 15802 7103 2.0 14 7 3 9 22% 8588 104468 17933 63%
c v  4.37 26 109 0 8 1731 15 15802 6968 2.0 14 7 3 9 22% 8588 104468 17933 63%
c w  4.39 26 109 0 8 1731 15 15802 6968 2.0 14 7 3 9 22% 8588 104468 17933 63%
c x  4.41 26 109 0 8 1731 15 15802 6968 2.0 14 7 3 9 22% 8588 103341 17933 63%
c =  4.53 26 109 0 8 1731 15 15802 6968 2.0 14 7 3 9 22% 10540 103279 16952 60%
c d  4.54 26 109 0 8 1731 15 15802 6968 2.0 14 7 3 9 22% 8590 103275 16952 60%
c t  4.56 26 109 0 8 1731 15 15802 6968 2.0 14 7 3 9 22% 8574 103275 16952 60%
c
c  seconds   switched    rate        size/glue tier1    binary          remaining
c         MB  reductions   conflicts       size  tier2     irredundant
c           level  restarts     redundant    glue   trail          variables
c
c f  4.59 26 109 0 8 1731 15 15802 6968 2.0 14 7 3 9 22% 8560 103267 16954 60%
c -  4.76 26 111 0 9 1857 15 17307 7202 2.1 14 7 3 9 22% 8591 103267 16954 60%
c o  5.04 26 110 0 9 2051 15 20053 9851 2.1 14 7 3 9 22% 8617 103267 16954 60%
c -  5.10 26 110 0 10 2083 15 20308 8703 2.1 14 7 3 9 22% 8618 103267 16954 60%
c -  5.40 26 111 0 11 2318 14 23470 9527 2.1 14 7 2 9 23% 8652 103267 16954 60%
c s  5.57 26 110 0 11 2440 14 25027 11042 2.1 14 7 2 9 23% 8655 92823 16954 60%
c e  5.66 26 110 0 11 2440 14 25027 11042 2.1 14 7 2 9 23% 8611 92830 16928 60%
c s  5.66 26 110 0 11 2440 14 25027 11042 2.1 14 7 2 9 23% 8613 92798 16928 60%
c e  5.67 26 110 0 11 2440 14 25027 11042 2.1 14 7 2 9 23% 8610 92799 16926 60%
c ^  5.67 26 110 0 11 2440 14 25027 11042 2.1 14 7 2 9 23% 8610 92799 16926 60%
c -  5.85 26 109 0 12 2583 14 26786 10516 2.1 14 7 2 9 23% 8619 92799 16926 60%
c u  5.93 26 109 0 12 2590 14 26934 9661 2.1 14 7 2 9 23% 8685 92799 16926 60%
c v  5.98 26 109 0 12 2590 14 26934 9161 2.1 14 7 2 9 23% 8688 92799 16926 60%
c w  5.99 26 109 0 12 2590 14 26934 9161 2.1 14 7 2 9 23% 8688 92799 16926 60%
c =  6.13 26 109 0 12 2590 14 26934 9161 2.1 14 7 2 9 23% 11092 92779 15723 55%
c d  6.14 26 109 0 12 2590 14 26934 9073 2.1 14 7 2 9 23% 8665 92779 15723 55%
c t  6.16 26 109 0 12 2590 14 26934 9073 2.1 14 7 2 9 23% 8656 92779 15723 55%
c u  6.25 26 109 0 12 2590 14 26934 8645 2.1 14 7 2 9 23% 8659 92779 15723 55%
c v  6.28 26 109 0 12 2590 14 26934 8514 2.1 14 7 2 9 23% 8659 92779 15723 55%
c w  6.30 26 109 0 12 2590 14 26934 8510 2.1 14 7 2 9 23% 8659 92779 15723 55%
c
c  seconds   switched     rate        size/glue tier1    binary         remaining
c         MB   reductions   conflicts       size  tier2     irredundant
c           level   restarts     redundant    glue   trail         variables
c
c x  6.33 26 109 0 12 2590 14 26934 8510 2.1 14 7 2 9 23% 8659 89054 15723 55%
c =  6.46 26 109 0 12 2590 14 26934 8510 2.1 14 7 2 9 23% 11091 88906 14496 51%
c d  6.47 26 109 0 12 2590 14 26934 8510 2.1 14 7 2 9 23% 8663 88906 14496 51%
c t  6.49 26 109 0 12 2590 14 26934 8510 2.1 14 7 2 9 23% 8622 88906 14496 51%
c b  6.49 26 109 0 12 2590 14 26934 8510 2.1 14 7 2 9 23% 8622 88906 14495 51%
c -  6.83 26 107 0 13 2877 14 30250 9818 2.1 14 7 2 9 23% 8605 88906 14495 51%
c -  7.14 26 106 0 14 3191 14 33856 11249 2.1 14 7 2 8 23% 8627 88906 14495 51%
c -  7.54 26 105 0 15 3659 14 37597 12446 2.1 14 7 2 8 23% 8654 88906 14495 51%
c o  7.76 26 104 0 15 3863 14 40058 14825 2.1 14 7 2 8 23% 8676 88906 14495 51%
c c  7.96 26 104 0 15 3980 14 41260 15992 2.1 14 7 2 8 23% 8711 88775 14478 51%
c d  7.97 26 104 0 15 3980 14 41260 15981 2.1 14 7 2 8 23% 8677 88775 14478 51%
c u  8.03 26 104 0 15 3980 14 41260 15255 2.1 14 7 2 8 23% 8738 88775 14478 51%
c v  8.07 26 104 0 15 3980 14 41260 14761 2.1 14 7 2 8 23% 8741 88775 14478 51%
c w  8.10 26 104 0 15 3980 14 41260 14760 2.1 14 7 2 8 23% 8741 88775 14478 51%
c x  8.14 26 104 0 15 3980 14 41260 14760 2.1 14 7 2 8 23% 8741 85032 14478 51%
c =  8.31 26 104 0 15 3980 14 41260 14760 2.1 14 7 2 8 23% 12013 84992 12837 45%
c d  8.32 26 104 0 15 3980 14 41260 14646 2.1 14 7 2 8 23% 8738 84992 12837 45%
c t  8.34 26 104 0 15 3980 14 41260 14646 2.1 14 7 2 8 23% 8734 84992 12837 45%
c u  8.44 26 104 0 15 3980 14 41260 14059 2.1 14 7 2 8 23% 8732 84992 12837 45%
c v  8.49 26 104 0 15 3980 14 41260 13851 2.1 14 7 2 8 23% 8732 84992 12837 45%
c
c  seconds   switched     rate         size/glue tier1    binary         remaining
c         MB   reductions   conflicts        size  tier2     irredundant
c           level   restarts      redundant    glue   trail         variables
c
c w  8.51 26 104 0 15 3980 14 41260 13846 2.1 14 7 2 8 23% 8732 84992 12837 45%
c x  8.55 26 104 0 15 3980 14 41260 13846 2.1 14 7 2 8 23% 8732 79384 12837 45%
c =  8.62 26 104 0 15 3980 14 41260 13846 2.1 14 7 2 8 23% 9994 79127 12168 43%
c }  8.62 26 104 0 15 3980 14 41260 13846 2.1 14 7 2 8 23% 9994 79127 12799 45%
c 0  8.62 26 104 0 15 3980 14 41260 13846 2.1 14 7 2 8 23% 9994 79127 12799 45%
c
c ---- [ result ] ------------------------------------------------------------
c
s UNSATISFIABLE
c
c ---- [ profiling ] ---------------------------------------------------------
c
c           4.72   54.74 %  search
c           4.72   54.74 %  focused
c           3.33   38.64 %  simplify
c           3.30   38.30 %  probe
c           1.09   12.61 %  vivify
c           1.03   11.94 %  sweep
c           0.47    5.44 %  factor
c           0.46    5.39 %  preprocess
c           0.34    3.95 %  substitute
c           0.29    3.41 %  eliminate
c           0.27    3.11 %  congruence
c           0.19    2.19 %  fastel
c           0.10    1.12 %  reduce
c           0.07    0.85 %  lucky
c           0.06    0.74 %  transitive
c           0.06    0.64 %  subsume
c           0.04    0.51 %  backbone
c           0.03    0.37 %  parse
c =============================================
c           8.62  100.00 %  total
c
c ---- [ statistics ] --------------------------------------------------------
c
c chronological:                          345                1 %  conflicts
c conflicts:                            41260             4787.21 per second
c congruent:                               31                0 %  variables
c decisions:                           564523               13.68 per conflict
c eliminated:                            8215               29 %  variables
c factored:                                79                0 %  variables
c fast_eliminated:                       8078               98 %  eliminated
c fast_subsumed:                            1                0 %  per subsumed
c propagations:                      29556320          3429286    per second
c reductions:                              15             2751    interval
c reordered:                                3            13753    interval
c restarts:                              3980               10    interval
c strengthened:                           109                0 %  checks
c substituted:                           7356               26 %  variables
c subsumed:                             21606                1 %  checks
c switched:                                 0                0    interval
c vivified:                             25859               28 %  checks
c
c ---- [ glue usage ] --------------------------------------------------------
c
c focused glue 2   used 16698 clauses 28.65% accumulated 60.70% tier1
c focused glue 3   used  5538 clauses  9.50% accumulated 70.20%
c focused glue 4-6 used  8818 clauses 15.13% accumulated 85.33%
c focused glue 7   used  1698 clauses  2.91% accumulated 88.25%
c focused glue 8   used  1416 clauses  2.43% accumulated 90.68% tier2
c
c ---- [ resources ] ---------------------------------------------------------
c
c maximum-resident-set-size:         27750400 bytes         26 MB
c process-time:                             9s               8.62 seconds
c
c ---- [ shutting down ] -----------------------------------------------------
c
c exit 20
